r_100_25_1
100
  0   0   0  57  60  52   0   0   0   0  98  70  88   0  84   0   0  68   0   0   0  92   0   0  94   0   0   0   0   0   0   0   0  86  26   0   0   0   0  25  78  54  24   0   0   0   0   0   0   0   0   0   0   0   0   0  38  37  88   0   0   0   0   0   0   0   0   0   0   0  24   0  27   0  87   0   0   0   0  61   0  40   0   0   0   0   0   0   0   0  91   0  84  96   0   0   0   0   0  52
  0   0   0   5   0   0   0   0   0  11  43   0  27   0   0  57   0   0   0   0   0   0  87   0   0   0   0   0   0   0   0   0   0   0   0  22  46   6   0   0   0   0  17   0  83   0   0   0  60   0  39   0   0   0  70   0  55   0  10  96   0   0   0  10  44   0   0   0  31   0   0   0  13   0  56   0   0  81   0   0  58  55   0   0   0   0  23  55  47   0   0   0  20   0   0  87   0   0   0
  0   0  38   0  59   0   0   0   0  85  91  11   0   0   0   0   0   0   0   0  12   0   0   0  54   0   0  86   0   0   0   0   0  66   0  31   0   0   0   0   0   0   0   0   0   0   0   0   0   0   0   0   0  49  69   0  64  18   0   0   0  43   0   0   0   0  63   0  93   0   0   0   0   0   0   2   0  65   0  45   0   0   0   0   0   0   0   0   0  34  51   0   8   0  41  53   0   0
  0   0   0  79  66  76  33   0   0  91   0   0   0   0   0   0   0   0   0   7   0   0   0   0   0   0   0   0   0   0  41   0  78   0   0   0  16   0   0  59  39   0   0  64   3   0   0   0   0   0   2   0   0   0   0  46  72   0   0   0  94   0  36   0   0   0   0   0   0   0  48  15   0  11   0   0   0   0   3   0   0  54   8   0   0   0  69  93   0  21   0   0   0   0   0   0   0
  0   0   0   0  48   0   0   0   0   0   0   0  87   0   3   0  98   0   0   0  65   0   0  55   0  50   0  90   0   0  19   0   0   0   0   0   0   0   0  82   0  44   0   0  68   0   0   0   0   0  36  11   0   0   0  39   0  43  96   0  17   0   0  26   0   0   0  75   0  89   0   0  40  71   0  50   0   0   0   0   0   0   0  29   0   0  36   0   0   9   0  84   0   0   0   0
  0   0   0   0   0   0  87   0   0   0   0   0   0   0   0   0   0   0   0   0  66   0   0   0   0  86   0   0   0   0   0   0   0   0   0   0   0   0  11   0   0   0   0 100   0  19  47   0  19   0   0   0   0   0  59   0   0   0   0   0   0   0   0   0   0   0   0   0   0   0  53   0   0  44   0  52   0  40   0   0   0   0  33   0   0  52   0   0  12   0   0  18   0  43   1
 44   0   0   0   0   0   0   0   0   0  87  17   0   0   0  56   0   0   0   0   0   0   0  10   0  69   0  17   0  50  71   0   0   0  46   0   0   0   0  51  78  21   0   0  85   0   0   0   0   0  38   0   0   0   0   0  53  66   0  48   0  45   0   0   0   0   0   0  70   0  23   0   0   0   0   0   0   0   0   0   0   0  17  25  72   0  31   0   0   0  55  25   0   0
 92   0   0  69   0   1   0   0   0  70   0  47  41   0   0  52   0   0   0   0   0  13   0   0   0  67   0  88   0  31  34   0   0   0   0   0   0   0   8   0   0   0  93   0  57   0   0   0   0   0   0  17   0   0   0   0  64   0   0   0   0  27   0   0  42   0   0   0  40   0   0   0   0   0   0   0   0  87   0   0  94   0   0   0  63  42  54   0   0  79   0  98  65
  0   0   0   0   0   0   0   1  30   0   0   0   0  98  95   0   0   0   0   0   0   0   0   0   0  19   0  61  61   0   0   0   0   0   0   0   0   0   0   0  44   7  30 100  49  64   0   0  21   0   0  56  26   0   0  23   2   0   0   0   0   0   0   0  19   0   0   0   0   0   0   0  59   0   0   0  81   0   0   0   0   0  23  55   0   0  42   0  22   0   0   0
 44   0   0   0   0   0  28   0   0   0   0  60   0   0   0   0  74   0   0   0   0   0   0  58  75  57   0   0   0  82   0   0   0  87   0   0   0  93   0   0   0  73   0   0  99   0   0   0   0   0  47  35  66   0  80  16   0   0   0  41   0   0   0  43   0   0   0   0   0   0   0   0   0   0   0   0  18   0   0   0  21  13   0   0   0  22   0  31   0   0   0
  0   0   0   0   0   2  23   0   0   0   0   0  23   0   0  27  33   0   0   0   0   0   0   0   0   0   0  79   0   0   0   0  83   0   0   0   0   0   0   0  88   0   0   0   0   0   0   0   0  43  88   0   0   0   0   0  26   0  17  85   0  26   0   0   0   0   0  42   0   0   0  33  75   0  18   0   0  60   0  54  82   0   0  31  77   0   0  10  99   0
  0   0   0   0   0  76   0  83   0   0  21   0  72   0   0   5   0 100   0   0   0   0   0  13  27  69   0   0   0   0   0   0   0  12   0  12   0  94   0   0   0   0   0  86   0  64   0   0   0   0  26   0   0   0   0  82   0   0   0   0  70   0   0   0   0   0   0  51   0   0   2   0   0   0   0  94   0   0   0   0   0   0   4   0   0   0   0  75   0
  0  51   0  92   0  59  68  35  28   0   0   0   0   0   0  85   0   0   0  54   0   0  62  18   0   0   0   0   0   0   0   6  56   0   0   0  38   0   0   0  43   0   0  13   0   0   0   0   0   0  68   0  78   0   0   0   0   0   0   0   0   0  98   0  85   0   0   0   0  48  57   0   0   0   0   0   0  78   0  97   0   0   0  34   0   0  15  19
  0   0   0   0  80  45   0   0  78   0   0   0   0  44   0  93  17  51   0   0   0   0  33   0   0   0   0   0   0   0   0   0  57   0   0   0   0   0   0  20   0   0   0   0   0   0   0  56  53   0   0   0   0   0   2  37  29   0   0   0  55   0   0   0   0   0   0   0   0   0   0  37  11  43   0   0   0  93   0   0   0   0   0  24   0   0   0
  9  86  86   0   0   0   0   0   0   0   0  77   0   0   0   0   0   0  17   0   0   0  57   0   0   0  66   0   0   0   0  38   0  84   0   0   0   0   0   0  12   0   0   0   0   0   0   0   0  10   0   0   0  12   0   0   0   0   0   0   0  90   0   0  66   0   0   0  93   0   0   0  17   0   0   0  35   0   0   0  10   0   0   0   0   0
  0   0  36   0   0   0   0   0   0  21   0   0  82   0  35   0   0   0   0  13  22   0   0   0  66   0   0   0   0  19   0   0   0   0   0  19   0   2   0   0   0   0   0   0   0  49   0  16  14   0   0  71   0   0   0   0  48   0   0   0  90   0   0   0   0   0  81   0   0  45   0   0   0  21  11   0   0   0   8   0   0   0   0  86   0
  0   0   0  27   0   0   0   0   0   0  61   0   0   0  18   3  51   0   0   0   0   9   0   0   0   0   0   0   0   0  19   0  57   0   0   0   0  19   6   0   0   0   0   0   0   0   0   0   0   0   0   0   0   0   0   0   0   0   0  45  98   0   0  99   0   0  55  69   0   0  18   0  29   0   0   0  70   0  47   0  53   0   0  65
 79   0  34   0   0   0   0   0  74   0   0   0   0   0   0   0   0   0   0   0   0   0   0  77  40   0   0   0   0  98  71   0   0   0   0   0   0   0   0  59  90   0  29   0   0  89   0  26   0   0  83   0   0  51   0   0   0  32  29  85   0   0   0   0   0  21  79  72   0  42   0   0   0   0   0  46  42  92   0   0   0   0   0
  0  61  39   0   0   0   0  42 100   0   0  99   0   0   0   0   0  35   0   0   0   0   0  24  36  41   0   0  40   0   0  87   0  52   0   0   0   0   6  32   0   0   0   0  98  99  55   0  19   0   0   0   0   0  80   0   0   0   0   0   0   0   0  94   0   0   0   0   0  48   0   0   0  84   0   0   0   0   0  85  63   0
  0   0   0   0   0   0   0  55  20  88  18   0   0  55   0   0   0   0   0   0   0   0  50  21   0   0   0   0  38   0   0  48  43   0   0  88  93   0   0   0   0  81   0 100   0   0   0 100   0  49   0   0   0  63   0  87   0   0  67   0   0   0   0  78  54   0   0   0  12   0   0   0   0  84   0   0   0   0   0   0  82
  0  24   0   0   0   0   0   0   0   0   0   0   0   0  29   0   0   0   0   0   0   0   0   0  58   0   0  64   0   0   0  52  53   0  78   0  11  60   0   2   0   0   0   0  11   0   0   0  16   0   0   0   0   0   0  94   0   0   0   0   0  77   0  74   0   0  44  44   0   0   0   0   0   0   0  15   0  91   0   0
  0   0   0   0   0   9   0   0   0  94   0   0   0   0  13  31  40   0   0   0   0  89   0   0   0   0   0   0   0   0   0   0   0  74   0   0  13   0   0   0   0   0   0   0   0   0  71   0   0   0   0   0   3  26   0   9   0  40   0   0   0   0   0   0   0   0   0   0   0   0   0   0   0  71   0   0  14   0  41
  0   0   0  87  88   7  85   0   0  37  16   0  85   0   0   0   0  32  76  90   0   0   0   0   0   0  83   0  31   0   0   0   0   0   0   0   0   0   0   0   0   0   0   0  96  36   0   0  15   0   0  12   0   0   0   0   0   0   0  85   0   0   0  36   0  36   0   0  68   0  53   0   0   0   0  25   0   0
  0   0   0   0   0  33   0   0   0   0   0   5   0   0  99   0  81   5   0   0  15   0   0  52  46   0   0   0   0  50   0   0  38   0   0  39   0   0   0   0   0  18   0   0   0   0   0   1   0   0   0   0   0   0   0   0   0   0  20   6   0  28   9  18   0   0   0   0   0  51   0   0   0  84   0  18   0
  0   0   8  79  64   0  37   0   0  19   0   0   0   0   7   0  39   0   0   0   0   0   0  49   0  71   0   0  78   0   0   0  83   0  78   0   0   0   0   0  62   0   0   0  37   0   0   0  81   0   0   0   0   0   0   0   0  25  33  11  16   0   0   0  34   0   0   0   0   0   0   0   0   0   0   0
  0  22   0  18   0  85   0   0  37  68   0   0   0  30   0  79   0   0   0  43   0  18   0   0   0   0   0   0   0  85   0   0   0   0  64   0   0   0   0   0   0   0   0   3   0   0   0   0  88   0   0  92   0   0  28   0   0   0  51  57  29   0   0   0  14  84  88   2  18   0   0   0   0   6   0
  0  92  35   0   0   0   0   0   0   0   0  47   0   0   0   0   0   0  36   0  72   0   0   0   0   0   0   0   9   0   0   0   0  27  51   0   0   0   0   0   0   0   6   0  66   0  31   0  96   0   0   0   0   0   0   0   0   0   0   0   0   0   0  83   0  52   9   0   0   0   0   0   0   0
  0  44   0   0   0   0   0   0   0   0   0  66  53   0   0   0   0   0   0   0   0  86   0  29   0   0  99   0   0   0   0   0  48  39   0   0   0   0   0   0   0   0   0  76  53  78   0  43  55   0   0   0   0   0   0  32  68   0   0   0   0   0   1   0   0   0   0   0  93   0  42  19   0
 75   0   0   0   0  50   0   0  15   0   0  80   0   0  41   0   0  16  41  80   0   0   0  90   0  45   0  17   0   0   0   0  33   0   0  48   0   0   0  66   0   0  53   0   0   0   0   0   0  84  39   0   0   0  58   0   0   0   0   0   0   0   0   0   0   0   0   0  96   0  28   0
  0  19  36   0  99   0   0  48   0  77   0   0   0   0   0   0  96   0   0   0   0   0   0   0   0  73   0   0   0   0   0   0   0   0  96   0  19   0   0   0   0   0   0   0  66  63   0   0   0   0   0  63  83  82   0   0   0  98   0  83   0   0   0   0  12   2   0   0   0   0  60
  0   0  74   0   0   0   0   0   0   0   0   0   0   0   0   0   0   0   0   0   0   6   0   0   4   0   0   0   0   0   0   0  89  98   0   0  79   0   0  51   0   0   0   0   0  88   0   0   0   0   0   0   0  11  39   0   0   0   0  71   0   0   0   0  98   0   0   0   0   0
  0   0   0   0   0   0   0   0   0   0   0  98   0   0  41   0   0   0  31  81   0   0   0   0   0  77   0  79   0  66   0   0   0  17  16  45   0  42   0  51   0   0   0   0   0  97   0   0  53   0   0   0   0   0  33   0  80   0  54   0   0   0   0   0  50   0  26   3   0
  0  85  84  85  56   0   0   0   0   0  86  94   0  45  99   0   0  14   0   0   0   0   0   0   0   0   0   0   0   0   0   0   5   0   0  94   0  93   0   0  71   0   0   0   0   0   0   0   0   0   0   0   0   0   0   0   0   0  54   0   0  39   0   0   0   0   0   0
  0  49   0   0   0   0   1   0   0   0  32   0   0   0  98   0   0   0   0   0  18   0   0   0   0   0   0  38  63   0   0   0   0   0   0   0   0   0   0  52   0   0   0  59   0   0   0   0   0   0  37   0   0   0   0   0   0   0  11  59   0   2   0   0  13   0   0
 88   9   0   0   0   0   0   0   0   0   0   0   0   0   0   0   0   0   0   0   0   0   0   0  10   0   0   0  20   0   0  14   0   0   0   0   0   0  65   0   0   0   0   0   0  50   0  15   0   0  20  19  69   0   0   0   0   7   0   0  68   0   4   0   0   0
  0  20   0   0   0  17   0   0   0   0   0  66   0   0  98   0   0  32  41   0   0   0   0   0 100   0   0   0   0   1   0  25   0  98  92   0   0   0   0  49   0  72   0   0   0  26  20   0   0   0   0   0   0   0  90   0   0   0   0   0   0   0   0  36   0
  0   0  83   0   2   0   0   0   0   0  64  83   0  66   0   0   0   0   0   0   0  26   0   0   0   0   0   0   0   0  89  46   0  23   0   0   0  25   0   0   0   0   0   0   0   0   0   0   0   0   0   0   0  10  70   0   0   0   0   0   0   0   0  97
 12  41   0   0  74   0  98   0   0   0   0   0   0   0   0   0   0  40  81  57   0   0   0   0   0   0   0   0   0  43   0   0   0   0   0   8   0   0  16  69   0   0  82   0   0   0   0   0   0   0   0   0   0   0   0   0  38   0   0   0  51  85   0
  0   0   0   0   0   0   0   0   0   0   0   0  40   0   0   0  57   0  22  51   0   0  88   0   0   0  60   0  71   0   0   0   0   0   0  92  14   0   0  86  62   0   0   0   0   5  10  72   0   0   0  75   0   0   0   0   0  51   0  44   0   0
 14   0   0  17  73   0   0   0  19   0   0   0   0   0   0   0   0   0   0   0   5  18   0   0   0  28  89   0   0   0   0   0   0   0   0  29   0   0  42   0   0   0   0   0   0  17   0   0  33  91  21   0   0   0   0   0   0  93  63   0  14
  0   0   0   0  13   0   0   0  29  53  83   0   0   0   0   0  21   0   0   9   0  91  33   0  19   0  94   0   0   0   0  26  42   0   0  81  64   0   0  70   0   0   0   0   0   0  43   2   0   0   0   0   0   0   0   0   0   0  66   0
 81   0   0   0   0   0   0  11  57   0   0   0  25   0   0   0  29   0   0   0   0   0  81   0   0   0   0   0   0   0  26  73   0   0   0  32   0   0   0   0  98   0  77   0  10  84   0   0  84   0   0  64   0   0   0   0   0   0   0
  0   0   0  66   0   0   0  36   0  96  88   0   0  37  76   0   0  89   0   0   0   0   0   0  52   0  32   0  39  54   0   0   0   0   0   0  70   0   0  86   0   0   0   0   0   0  15   0   0   0   0   0   0   0   0   0  97   0
  0   0  71   0  36   0  95   0   0   0   0   0   0   0   0  83   0   0   0   0  75   0   0   0   0   0   0   0   0   0   0   0   0   0  64   0  62   0   0   0  38  47   0  34   0   0   0   0   0   0   0   0   0   0   0   0  60
 62  35  82  86   0   0   0   0   0   0   0  39   1   0   0   0   0  50  54   0   0   0  19   0   0  62   0   0   0   0   0  49   0  87   0   0  97  68   0   0   0  19   0   0   0  11   0   0   7   0  98   0   0  72  54   0
 37   0   0   0  48   0   0   0   0  97   0   0   0   0   0   0   0   0  89   0  90   0   0   0   0   0   0   0   0   0   0   0  99   0  22   0   0   0   0   0   0   0   0  98   0   0  35   0  12   6   0  75   0   0  91
  0   0   0  25  68  14   0   0  29   0   0   0   0   0   0   0   0   0   0   0  23   0  81  96   0  78   0   2   1  16   0  75  56   0   0   0   0  63   0   0  70   0   0   0  31   0   0   0   0  48   0  64  20   0
  0   0   0  77  30   0   0   0   0  32   0  57   0   0  15   0   0  75  48  17   0   0   0  97   0   0   0   0  32   0   0  49   0  75   0   0   0   0   0   0   0   0   0  70   0   0  98  32   0   0   0   0  68
 74   0   0   0  31   0   0   0   0   0  34   0   0   0   0   0   0   0  38  60   0   0  88  69   0   0   0  50   0  81   0  27   0  28   0   0   0  47  88   0   0   0  24   0   0   0   0   0   0  23   0   0
  0  49   0   0   5   0   0   0  49  39   0   0   0   0   0   0  45  50  11   0   0   0   0   0   0   0   0   0   0   0   0   0   0   0   0   0   0  48   0  29   0   0   0  53   0  66   0   0   0   0  91
  0   0   0   0   0  15   0   0   0   0   0   0   0   0   0   0  87   0   0   0   0   0   0  46   0   0   0   0   0   0   0   0   0   0   0   0   0   0   0  10   0   0   0   0   0   0  26   0   0   0
  0   0   0   9   0   5   0   0  46   0  75   0  78   0  93  89   0   0  67   0   0   0   0   0   0   0   0   0   0   0   0   0  46   0   0   0   0  13   0   0   0   0  12   0   0   0   1   9   0
 91   0   0  90   0   0   0  11   0  74   0   0  89   0  55   0   0   0   0  80   0   0   0   0   0  26  31  79  39  27  12  57   0   0   0   0   0  84  75  11   0  88   0   0   0  32   0  45
  0   0   0   0   0   0   0  83   0  49   0   0   0   0  16  16  17   0   0   0   0   0  73   0  54  26   0   0   0   0   0   0   0   0   0  32   0   0   0   0  22  75   0   0  45   0   0
 29   0   0   0   0   0   0  44   0  78   0   0  24   0  91   0  29  50   0   0   0   0  45  40   0   6   1   0   0   0  79   0   0  40   0   0   0  17   0   0   0  19  89   0   0  88
  9   0   0   0   0  70   0   0   0   0   0   0   0  67   0   0   0   0  48  25   0   0   0  89   0   0   0   0  52   0  94   0   0   0   0   0   0   0   0   0   0  21   0   0   0
 22   5   0   0   0   0  33   1  53   0   0   0   3   0   0   0   0   0   0   0   0  59   0  82   0  41   0   0   0   0  61   0   0   0  62   0   0  29  16  56   0   0   0   0
  0   0   0   0   0   0  21   0   0   0  81  87  35  54   0  52  26   0  65   0   0   0   0   0   0   0   0   0   0   0  41   0   7   0   0  10   0   0   0   0   0  90  81
  0  13   0   0   0  97   0   0   0   0   0   0   0   0   0   0   0   0   0   0  93   0  71   0   0   0   0   0   0  73   0   0   0   0  25   0   0   0  84  97   0   0
  0   0   0  32  73  91   0   0  63  82  20  63   0   0   0  50   0   0   0   0  94  16   0   0   0   0   0  49   0   0  97  77   0   0  30   0   0   0   0   0   0
  0   0   0   0   0  70   0  96   0   0   0   0   0   0   0   0  63   9  74   0   0   0   0   9   0   6  50   0   0  79   0   0   0   0  89   0   0   0  38  82
  0   0   0   0   0   3   0   0   0  31   0  40   0  34   0   0   0   0   0   0   0   0   0   0   0   0  58  20  89   0   0   0   0   0   0   0   0  29   0
  0   0   0   0   0   0   0  72   0  29   0   0   0   0   0   0   0  32   0   0   0   0   0   0   0   0   3   0  71   0   0  73   0   0   0   0   0  91
 25   0   0  52   0   0   0   0   0   0   0  78   0   0   0   0   0   0   0  18   0   0   0   0   0   0   0   0   7   0   0   0   0   0   0   0   0
  0   0   0   0   0  61  86   0  54   0   0   0   0   0  76   0   0   0  44  38   0   0   0   0   0  42  79  70  96  73  17   0  14   9   0   0
  0   0  29   0   0   0   0   0  57   0  87   0   0   0   0   0   0  20   0   0  47   0   0   0   0   0   0  18  59   0   0  89   0   0   0
 83   0   0  93   0   0   0  73   0   3  56   0  37   0   0   0   0   0   0   0   0   0   0   0  33   0   0  21   0   0   0   0   0   0
  0  68   0  87   0  22   0   0  51   0   7   0   0   0  59  17   0   0   0   0   0   0   0   0   0   0   0   0  51   0   0   0  99
  0   0   0  39   0  31   0   0  68   0  16   0   0   0   0   0   0   0   0  63   0   0   5   0  45   0   0   0   0  60   0   0
 92   0   0   0   0   0   0   0   0  85   0   0   0   0   0   0   0   0   0   0   0   0   0   0   0   0   0  54   0   0   0
  0   5   0   0   0   0  79   0   0   0   0   0  59   0   0   0   0  28  31   0   0   0   0   0  78   0  83   0   0   0
  0   0   0   0   0   0  82   0   0   0   0   0   0   0   0   0   0   0   0   0   0   0   0   0   0   0  40   8  58
  0   0   0  13   0   0   0  70  37  90   0   0   0  43   0   0   0  79   0   0  28   0   0  76   0   0   0   0
  0   0   0   0  41  47   0   0   0   0   0  47   0   0   0   0   0   0   0   0   0  94   0   0  34  64  65
  0  95   0   0  45   0   0   0  89   0  53   0   0   0   0   0   0   0   0   0   0  62   0  51  17   0
  0  24   0   0   0   0   0   0   0   0   0   0   0   0   0   0   0   0   0   0   0   0  52  56   6
  0  31   0  56   0   0   0   0   0   3   0   0   0   0   0  37   0   0   0   0  45   0  43   0
 24   0  38   6   0   0   0   0   0   0   0   0   0   0   0  70  27   0   0   0   0   0  14
 83  99   0   0   0   0  94   0   0   0   0   0   0  53   0   0   0   0   0   0   0   0
 84   0  98   0  92   0   0   0   0   0   0   8   0   0   0   0   0   0  12   0   0
  0  39   0   0   0   0   3   0  56   0   0   0   0   0  75  80   0  33   0  25
 32   0   0   0   0   0   0   0  76  57   0  94   0   0  60   0   7   0   0
 81   0  86   0   0   0   0   0  98   0   0   0   0   0   0  24   0  45
  0   0   0  66   0   0   0  66   0  98   0   0   0   0   0   0  64
  0   0   0   0   0   0   0   0   0  17   0   0  59   0   0  29
 59   0   0   0   0   0   0   0  11   0   0   0   0  19   0
  0  92   0  48  98   0   0   0   0   0   0  80   0   0
 29   0  50  46   0   0   0   1   0   0   5   0   0
  0   0  88   6   0   0   0   0   0   0  49   0
  0   0   0   0   0  92   0   0  37   0   0
  0   0  17   0   0   0  60   0   0  96
  0   0   0   0  41   0  92   0  22
  0   0   0   0   0   0   0   0
 25   0   0   0   0   0   0
  0   0   0   0   0   0
  0   0   0  19   0
  0  84   0   0
  0  30   0
  0   0
  0

0
669
 28   8  24  38  26  47  46  23  18  18  34  36  12  33  32  29  35  10   2   1  37  35  12  36  33   8  34  36   2  36   3  44  42   9   7  32  12   5   4  50  48  30  39  46  26   5  44  28  21  24  45  11  20  45  21  24  37   8   7  49  25  44  16   9  37   8   1  17  42  12  32  49  20  42  48  47  11   1   9  16   3  48  27  18  23  38  30   3  48  20  36  46  20   8  16  50  32  49  12  14

Comments

Density             : 25.00 %
